0
157
1996
25
381
33
48
266
65
47
841
67
31
80
50
293
148
564
27
21
253
168
2119
399
38
203
79
96
38
44
29
42
199
235
80
39
205
111
65
94
49
401
471
89
93
235
40
0
352
365
55
118
298
188
92
26
376
73
774
117
63
207
458
93
109
39
139
60
161
24
50
231
246
1368
36
64
30
56
50
0
437
58
215
110
137
0
38
150
208
50
719
151
198
147
0
137
154
0
297
39
